NAME : P-n50-k10
COMMENT : (Augerat et al, No of trucks: 10, Best value: 696)
TYPE : CVRP
DIMENSION : 50
EDGE_WEIGHT_TYPE : EUC_2D
CAPACITY : 100
NODE_COORD_SECTION
1 40 40
2 22 22
3 36 26
4 21 45
5 45 35
6 55 20
7 33 34
8 50 50
9 55 45
10 26 59
11 40 66
12 55 65
13 35 51
14 62 35
15 62 57
16 62 24
17 21 36
18 33 44
19 9 56
20 62 48
21 66 14
22 44 13
23 26 13
24 11 28
25 7 43
26 17 64
27 41 46
28 55 34
29 35 16
30 52 26
31 43 26
32 31 76
33 22 53
34 26 29
35 50 40
36 55 50
37 54 10
38 60 15
39 47 66
40 30 60
41 30 50
42 12 17
43 15 14
44 16 19
45 21 48
46 50 30
47 51 42
48 50 15
49 48 21
50 12 38
DEMAND_SECTION
1 0
2 18
3 26
4 11
5 30
6 21
7 19
8 15
9 16
10 29
11 26
12 37
13 16
14 12
15 31
16 8
17 19
18 20
19 13
20 15
21 22
22 28
23 12
24 6
25 27
26 14
27 18
28 17
29 29
30 13
31 22
32 25
33 28
34 27
35 19
36 10
37 12
38 14
39 24
40 16
41 33
42 15
43 11
44 18
45 17
46 21
47 27
48 19
49 20
50 5
DEPOT_SECTION
 1
 -1
NODE_PRIORITY_SECTION
1 0
2 2
3 3
4 3
5 4
6 2
7 4
8 3
9 3
10 2
11 2
12 1
13 3
14 2
15 1
16 2
17 3
18 4
19 1
20 2
21 1
22 2
23 2
24 2
25 1
26 1
27 4
28 3
29 2
30 3
31 3
32 1
33 2
34 3
35 3
36 2
37 1
38 1
39 1
40 2
41 3
42 1
43 1
44 2
45 2
46 3
47 3
48 2
49 3
50 2
EOF
